c ---- [ banner ] ------------------------------------------------------------
c
c Kissat SAT Solver
c 
c Copyright (c) 2021-2023 Armin Biere University of Freiburg
c Copyright (c) 2019-2021 Armin Biere Johannes Kepler University Linz
c 
c Version 3.1.1 71caafb4d182ced9f76cef45b00f37cc598f2a37
c Apple clang version 15.0.0 (clang-1500.3.9.4) -W -Wall -O3 -DNDEBUG
c Sat Jul 6 13:57:08 EDT 2024 Darwin Henrys-MacBook-Pro-M1.local 23.5.0 arm64
c
c ---- [ parsing ] -----------------------------------------------------------
c
c opened and reading DIMACS file:
c
c   fu100.cnf
c
c parsed 'p cnf 100 5000' header
c closing input after reading 61159 bytes (60 KB)
c finished parsing after 0.00 seconds
c
c ---- [ solving ] -----------------------------------------------------------
c
c  seconds switched conflicts irredundant variables
c         MB reductions redundant    trail   remaining
c          level restarts   binary      glue
c
c *  0.00  2 0 0 0  0   0   0   0 5000 0% 0 100 99%
c {  0.00  2 0 0 0  0   0   0   0 5000 0% 0 100 99%
c i  0.00  2 2 0 0  0   5   1   2 4999 33% 1 99 98%
c }  0.00  2 2 0 0  0   8   1   3 4999 33% 1 85 84%
c 0  0.00  2 2 0 0  0   8   1   3 4999 33% 1 85 84%
c
c ---- [ result ] ------------------------------------------------------------
c
s UNSATISFIABLE
c
c ---- [ profiling ] ---------------------------------------------------------
c
c           0.00   70.73 %  parse
c           0.00   10.78 %  search
c           0.00    8.68 %  focused
c           0.00    0.00 %  simplify
c =============================================
c           0.00  100.00 %  total
c
c ---- [ statistics ] --------------------------------------------------------
c
c conflicts:                                8              837.17 per second
c decisions:                                6                0.75 per conflict
c propagations:                            51             5337    per second
c queue_decisions:                          6              100 %  decision
c random_decisions:                         0                0 %  decision
c random_sequences:                         0                0    interval
c score_decisions:                          0                0 %  decision
c switched:                                 0                0    interval
c vivify_checks:                            0                0    per vivify
c vivify_units:                             0                0 %  variables
c
c ---- [ resources ] ---------------------------------------------------------
c
c maximum-resident-set-size:       2600468480 bytes       2480 MB
c process-time:                                              0.00 seconds
c
c ---- [ shutting down ] -----------------------------------------------------
c
c exit 20
